projet_m2_wvcp/projet_m2_wvcp/original_wvcp_dzn/p35.clq.dzn
cliques=[{46,0,24,79,32},{5,54,25,71,81,40,12,1,34,48},{0,2,1,3},{58,15,66,29,84,3,51,76},{5,6,4,8,9,7},{5,6,4,8,9,7},{5,6,4,8,9,7},{5,6,4,8,9,7},{5,6,4,8,9,7},{5,6,4,8,9,7},{14,13,11,15,16,12,10},{14,13,11,15,16,12,10},{5,54,25,71,81,40,12,1,34,48},{6,26,13,55,41,82,63,49},{14,13,11,15,16,12,10},{14,13,11,15,16,12,10},{14,13,11,15,16,12,10},{68,17,30,77,10,60,22},{20,18,17,21,19},{42,73,64,27,19},{57,8,20,83,75,28,36,65,44},{67,37,85,16,9,45,59,21},{26,25,29,24,27,28,23,22},{4,11,52,69,38,23,61,78,31},{26,25,29,24,27,28,23,22},{5,25,54,71,81,40,12,1,34,48},{6,26,13,55,41,82,63,49},{26,25,29,27,24,28,23,22},{57,8,20,83,75,28,36,65,44},{26,25,29,24,27,28,23,22},{37,35,30,34,36,33,32,31},{4,11,52,69,38,23,61,78,31},{37,35,30,34,36,33,32,31},{37,35,30,34,36,33,32,31},{5,54,25,71,81,40,12,1,34,48},{14,50,56,43,35,7,74},{57,8,20,83,75,36,28,65,44},{67,37,85,16,9,45,59,21},{4,11,52,69,38,23,61,78,31},{42,45,43,41,40,38,39,44},{5,54,25,71,81,40,12,1,34,48},{6,26,13,55,41,82,63,49},{42,45,43,41,40,38,39,44},{14,50,56,43,35,7,74},{57,8,20,83,75,28,36,44,65},{67,37,85,16,9,45,59,21},{50,46,51,47,48,49},{50,46,51,47,48,49},{5,54,25,71,81,40,12,1,34,48},{6,26,13,55,41,82,63,49},{14,50,56,43,35,7,74},{58,15,66,29,84,3,51,76},{57,54,56,52,58,55,53,59},{57,54,56,52,58,55,53,59},{5,54,25,71,81,40,12,1,34,48},{6,26,13,55,41,82,63,49},{57,54,56,52,58,55,53,59},{57,54,56,52,58,55,53,59},{57,54,56,52,58,55,53,59},{57,54,56,52,58,55,53,59},{67,66,62,64,65,61,60,63},{4,11,52,69,38,23,61,78,31},{67,66,62,64,65,61,60,63},{6,26,13,55,41,82,63,49},{67,66,62,64,65,61,60,63},{57,8,20,83,75,28,36,65,44},{58,15,66,29,84,3,51,76},{67,37,85,16,9,45,59,21},{68,71,69,75,74,73,76,72,70},{4,11,52,69,38,23,61,78,31},{68,71,69,75,74,73,76,72,70},{5,54,25,71,81,40,12,1,34,48},{68,71,69,75,74,73,76,72,70},{68,71,69,75,74,73,76,72,70},{14,50,56,43,35,7,74},{57,8,20,83,75,28,36,65,44},{58,15,66,29,84,3,51,76},{85,81,83,84,77,82,80,79,78},{4,11,52,69,38,23,61,78,31},{85,81,83,84,77,82,80,79,78},{85,81,83,84,77,82,80,79,78},{5,54,25,71,81,40,12,1,34,48},{6,26,13,55,41,82,63,49},{57,8,20,83,75,28,36,65,44},{58,15,66,29,84,3,51,76},{67,37,85,16,9,45,59,21}];
nr_cliques=86;
