projet_m2_wvcp/projet_m2_wvcp/original_wvcp_dzn/p35.dzn
name="p35";
nr_vertices=86;
nr_edges=566;
neighborhoods=[{1,2,3,24,32,46,79},{0,2,3,5,12,25,34,40,48,54,71,81},{0,1,3,62,72},{0,1,2,15,29,51,58,66,76,84},{5,6,7,8,9,11,23,31,38,52,61,69,78},{1,4,6,7,8,9,12,25,34,40,48,54,71,81},{4,5,7,8,9,13,26,41,49,55,63,82},{4,5,6,8,9,14,35,43,50,56,74},{4,5,6,7,9,20,28,36,44,57,65,75,83},{4,5,6,7,8,16,21,37,45,59,67,85},{11,12,13,14,15,16,17,22,30,60,68,77},{4,10,12,13,14,15,16,23,31,38,52,61,69,78},{1,5,10,11,13,14,15,16,25,34,40,48,54,71,81},{6,10,11,12,14,15,16,26,41,49,55,63,82},{7,10,11,12,13,15,16,35,43,50,56,74},{3,10,11,12,13,14,16,29,51,58,66,76,84},{9,10,11,12,13,14,15,21,37,45,59,67,85},{10,18,19,20,21,22,30,60,68,77},{17,19,20,21,33,39,47,53,70,80},{17,18,20,21,27,42,64,73},{8,17,18,19,21,28,36,44,57,65,75,83},{9,16,17,18,19,20,37,45,59,67,85},{10,17,23,24,25,26,27,28,29,30,60,68,77},{4,11,22,24,25,26,27,28,29,31,38,52,61,69,78},{0,22,23,25,26,27,28,29,32,46,79},{1,5,12,22,23,24,26,27,28,29,34,40,48,54,71,81},{6,13,22,23,24,25,27,28,29,41,49,55,63,82},{19,22,23,24,25,26,28,29,42,64,73},{8,20,22,23,24,25,26,27,29,36,44,57,65,75,83},{3,15,22,23,24,25,26,27,28,51,58,66,76,84},{10,17,22,31,32,33,34,35,36,37,60,68,77},{4,11,23,30,32,33,34,35,36,37,38,52,61,69,78},{0,24,30,31,33,34,35,36,37,46,79},{18,30,31,32,34,35,36,37,39,47,53,70,80},{1,5,12,25,30,31,32,33,35,36,37,40,48,54,71,81},{7,14,30,31,32,33,34,36,37,43,50,56,74},{8,20,28,30,31,32,33,34,35,37,44,57,65,75,83},{9,16,21,30,31,32,33,34,35,36,45,59,67,85},{4,11,23,31,39,40,41,42,43,44,45,52,61,69,78},{18,33,38,40,41,42,43,44,45,47,53,70,80},{1,5,12,25,34,38,39,41,42,43,44,45,48,54,71,81},{6,13,26,38,39,40,42,43,44,45,49,55,63,82},{19,27,38,39,40,41,43,44,45,64,73},{7,14,35,38,39,40,41,42,44,45,50,56,74},{8,20,28,36,38,39,40,41,42,43,45,57,65,75,83},{9,16,21,37,38,39,40,41,42,43,44,59,67,85},{0,24,32,47,48,49,50,51,79},{18,33,39,46,48,49,50,51,53,70,80},{1,5,12,25,34,40,46,47,49,50,51,54,71,81},{6,13,26,41,46,47,48,50,51,55,63,82},{7,14,35,43,46,47,48,49,51,56,74},{3,15,29,46,47,48,49,50,58,66,76,84},{4,11,23,31,38,53,54,55,56,57,58,59,61,69,78},{18,33,39,47,52,54,55,56,57,58,59,70,80},{1,5,12,25,34,40,48,52,53,55,56,57,58,59,71,81},{6,13,26,41,49,52,53,54,56,57,58,59,63,82},{7,14,35,43,50,52,53,54,55,57,58,59,74},{8,20,28,36,44,52,53,54,55,56,58,59,65,75,83},{3,15,29,51,52,53,54,55,56,57,59,66,76,84},{9,16,21,37,45,52,53,54,55,56,57,58,67,85},{10,17,22,30,61,62,63,64,65,66,67,68,77},{4,11,23,31,38,52,60,62,63,64,65,66,67,69,78},{2,60,61,63,64,65,66,67,72},{6,13,26,41,49,55,60,61,62,64,65,66,67,82},{19,27,42,60,61,62,63,65,66,67,73},{8,20,28,36,44,57,60,61,62,63,64,66,67,75,83},{3,15,29,51,58,60,61,62,63,64,65,67,76,84},{9,16,21,37,45,59,60,61,62,63,64,65,66,85},{10,17,22,30,60,69,70,71,72,73,74,75,76,77},{4,11,23,31,38,52,61,68,70,71,72,73,74,75,76,78},{18,33,39,47,53,68,69,71,72,73,74,75,76,80},{1,5,12,25,34,40,48,54,68,69,70,72,73,74,75,76,81},{2,62,68,69,70,71,73,74,75,76},{19,27,42,64,68,69,70,71,72,74,75,76},{7,14,35,43,50,56,68,69,70,71,72,73,75,76},{8,20,28,36,44,57,65,68,69,70,71,72,73,74,76,83},{3,15,29,51,58,66,68,69,70,71,72,73,74,75,84},{10,17,22,30,60,68,78,79,80,81,82,83,84,85},{4,11,23,31,38,52,61,69,77,79,80,81,82,83,84,85},{0,24,32,46,77,78,80,81,82,83,84,85},{18,33,39,47,53,70,77,78,79,81,82,83,84,85},{1,5,12,25,34,40,48,54,71,77,78,79,80,82,83,84,85},{6,13,26,41,49,55,63,77,78,79,80,81,83,84,85},{8,20,28,36,44,57,65,75,77,78,79,80,81,82,84,85},{3,15,29,51,58,66,76,77,78,79,80,81,82,83,85},{9,16,21,37,45,59,67,77,78,79,80,81,82,83,84}];
weights=[100,80,100,80,340,700,350,100,180,150,70,180,80,250,330,160,150,90,100,30,150,30,30,60,80,200,250,80,60,150,80,20,40,40,60,100,60,230,80,70,80,120,150,130,50,130,160,50,40,10,200,50,160,70,200,150,180,280,160,60,40,50,100,30,80,50,150,250,160,120,30,150,40,80,80,80,40,70,30,50,60,110,60,100,100,210];
